50
    1    15    15
    2     2     2
    3    14    14
    4    10    10
    5    24    24
    6    34    34
    7    45    45
    8    24    24
    9    48    48
   10    29    29
   11    37    37
   12     7     7
   13    29    29
   14    13    13
   15    43    43
   16    45    45
   17    11    11
   18    44    44
   19    28    28
   20    14    14
   21     5     5
   22     9     9
   23    33    33
   24     7     7
   25    16    16
   26     5     5
   27    34    34
   28    22    22
   29    28    28
   30    13    13
   31    28    28
   32    26    26
   33    25    25
   34    38    38
   35    40    40
   36    32    32
   37    39    39
   38    12    12
   39    30    30
   40    39    39
   41     3     3
   42    25    25
   43    23    23
   44    31    31
   45    26    26
   46    26    26
   47     4     4
   48     8     8
   49    40    40
   50    23    23
1005
